nN = 4;
nR = 17;
nH = 1;

a = [[12, 16, 24, 19, 11, 11, 22, 13, 9, 7, 19, 19, 12, 8, 24, 10, 25], [23, 18, 8, 21, 17, 24, 6, 5, 6, 5, 5, 25, 14, 17, 22, 22, 25], [17, 5, 24, 11, 13, 7, 11, 14, 17, 17, 18, 5, 24, 19, 13, 16, 6], [13, 10, 18, 15, 13, 25, 21, 15, 18, 23, 17, 24, 23, 13, 6, 11, 23]];
c = [[[0, 0, 0, 0, 0, 0, 0, 0, 0, 0, 0, 0, 0, 0, 0, 0, 0], [47, 42, 46, 32, 34, 44, 45, 50, 43, 33, 39, 44, 33, 33, 31, 42, 30], [36, 30, 39, 36, 41, 45, 48, 49, 38, 40, 40, 35, 42, 35, 35, 38, 40], [34, 43, 34, 41, 33, 37, 47, 33, 34, 49, 46, 39, 36, 42, 48, 50, 42]], [[0, 0, 0, 0, 0, 0, 0, 0, 0, 0, 0, 0, 0, 0, 0, 0, 0], [0, 0, 0, 0, 0, 0, 0, 0, 0, 0, 0, 0, 0, 0, 0, 0, 0], [41, 36, 43, 34, 50, 40, 50, 30, 38, 39, 34, 40, 47, 39, 46, 36, 31], [30, 41, 42, 38, 46, 33, 48, 50, 49, 44, 37, 38, 31, 35, 36, 35, 48]], [[0, 0, 0, 0, 0, 0, 0, 0, 0, 0, 0, 0, 0, 0, 0, 0, 0], [0, 0, 0, 0, 0, 0, 0, 0, 0, 0, 0, 0, 0, 0, 0, 0, 0], [0, 0, 0, 0, 0, 0, 0, 0, 0, 0, 0, 0, 0, 0, 0, 0, 0], [47, 44, 40, 41, 47, 30, 46, 40, 38, 42, 31, 32, 47, 36, 45, 34, 36]], [[0, 0, 0, 0, 0, 0, 0, 0, 0, 0, 0, 0, 0, 0, 0, 0, 0], [0, 0, 0, 0, 0, 0, 0, 0, 0, 0, 0, 0, 0, 0, 0, 0, 0], [0, 0, 0, 0, 0, 0, 0, 0, 0, 0, 0, 0, 0, 0, 0, 0, 0], [0, 0, 0, 0, 0, 0, 0, 0, 0, 0, 0, 0, 0, 0, 0, 0, 0]]];
Q = [[58], [43], [49], [48]];

q = [[[19], [12], [7], [9], [15], [23], [14], [24], [19], [19], [16], [17], [14], [17], [20], [25], [17]], [[23], [13], [25], [14], [5], [19], [9], [7], [9], [15], [9], [12], [5], [10], [12], [10], [14]], [[6], [21], [11], [23], [12], [9], [9], [20], [15], [18], [10], [24], [7], [5], [19], [18], [14]], [[11], [13], [11], [20], [9], [7], [20], [10], [17], [13], [5], [22], [21], [7], [16], [22], [15]]];
p = [0.14, 0.14, 0.34, 0.89, 0.91, 0.07, 0.71, 0.94, 0.83, 0.74, 0.99, 0.87, 0.7, 0.77, 0.01, 0.94, 0.97];
